solution status: optimal solution found
objective value:                                   20
x23                                                 1 	(obj:1)
x24                                                 1 	(obj:1)
x25                                                 1 	(obj:1)
x26                                                 1 	(obj:1)
x31                                                 1 	(obj:1)
x32                                                 1 	(obj:1)
x38                                                 1 	(obj:1)
x39                                                 1 	(obj:1)
x42                                                 1 	(obj:1)
x43                                                 1 	(obj:1)
x44                                                 1 	(obj:1)
x48                                                 1 	(obj:1)
x49                                                 1 	(obj:1)
x50                                                 1 	(obj:1)
x52                                                 1 	(obj:1)
x55                                                 1 	(obj:1)
x56                                                 1 	(obj:1)
x64                                                 1 	(obj:1)
x70                                                 1 	(obj:1)
x72                                                 1 	(obj:1)
one.ctrl_a[4].flush_y                               6 	(obj:0)
one.thingy.devices[0].thingy.v6_y                    9 	(obj:0)
one.thingy.devices[0].thingy.v6_z                    6 	(obj:0)
one.ctrl_a[4].hole_y                                7 	(obj:0)
one.ctrl_a[4].hole_z                                3 	(obj:0)
one.thingy.devices[1].thingy.v6_y                    9 	(obj:0)
one.thingy.devices[1].thingy.v6_z                    7 	(obj:0)
one.thingy.devices[1].thingy.v5_y                   10 	(obj:0)
one.thingy.devices[1].thingy.v5_z                    7 	(obj:0)
one.thingy.devices[3].thingy.v6_y                    9 	(obj:0)
one.thingy.devices[3].thingy.v6_z                    3 	(obj:0)
one.thingy.devices[2].thingy.v6_y                    9 	(obj:0)
one.thingy.devices[2].thingy.v6_z                    5 	(obj:0)
one.thingy.devices[2].thingy.v5_y                   10 	(obj:0)
one.thingy.devices[2].thingy.v5_z                    6 	(obj:0)
one.thingy.devices[3].thingy.v5_y                   10 	(obj:0)
one.thingy.devices[3].thingy.v5_z                    4 	(obj:0)
one.thingy.devices[0].thingy.v5_y                   11 	(obj:0)
one.thingy.devices[0].thingy.v5_z                    7 	(obj:0)
